p cnf 24 208
-1 -6 0
-1 -7 0
-1 -8 0
-2 -5 0
-2 -7 0
-2 -8 0
-3 -5 0
-3 -6 0
-3 -8 0
-4 -5 0
-4 -6 0
-4 -7 0
-1 -10 0
-1 -11 0
-1 -12 0
-2 -9 0
-2 -11 0
-2 -12 0
-3 -9 0
-3 -10 0
-3 -12 0
-4 -9 0
-4 -10 0
-4 -11 0
-1 -18 0
-1 -19 0
-1 -20 0
-2 -17 0
-2 -19 0
-2 -20 0
-3 -17 0
-3 -18 0
-3 -20 0
-4 -17 0
-4 -18 0
-4 -19 0
-5 -18 0
-5 -19 0
-5 -20 0
-6 -17 0
-6 -19 0
-6 -20 0
-7 -17 0
-7 -18 0
-7 -20 0
-8 -17 0
-8 -18 0
-8 -19 0
-5 -22 0
-5 -23 0
-5 -24 0
-6 -21 0
-6 -23 0
-6 -24 0
-7 -21 0
-7 -22 0
-7 -24 0
-8 -21 0
-8 -22 0
-8 -23 0
-9 -18 0
-9 -19 0
-9 -20 0
-10 -17 0
-10 -19 0
-10 -20 0
-11 -17 0
-11 -18 0
-11 -20 0
-12 -17 0
-12 -18 0
-12 -19 0
-9 -22 0
-9 -23 0
-9 -24 0
-10 -21 0
-10 -23 0
-10 -24 0
-11 -21 0
-11 -22 0
-11 -24 0
-12 -21 0
-12 -22 0
-12 -23 0
-13 -18 0
-13 -19 0
-13 -20 0
-14 -17 0
-14 -19 0
-14 -20 0
-15 -17 0
-15 -18 0
-15 -20 0
-16 -17 0
-16 -18 0
-16 -19 0
-17 -22 0
-17 -23 0
-17 -24 0
-18 -21 0
-18 -23 0
-18 -24 0
-19 -21 0
-19 -22 0
-19 -24 0
-20 -21 0
-20 -22 0
-20 -23 0
1 5 9 13 17 21 0 
2 6 10 14 18 22 0 
3 7 11 15 19 23 0 
4 8 12 16 20 24 0 
-2 -1 0
-3 -1 0
-4 -1 0
-3 -2 0
-4 -2 0
-4 -3 0
-6 -5 0
-7 -5 0
-8 -5 0
-7 -6 0
-8 -6 0
-8 -7 0
-10 -9 0
-11 -9 0
-12 -9 0
-11 -10 0
-12 -10 0
-12 -11 0
-14 -13 0
-15 -13 0
-16 -13 0
-15 -14 0
-16 -14 0
-16 -15 0
-18 -17 0
-19 -17 0
-20 -17 0
-19 -18 0
-20 -18 0
-20 -19 0
-22 -21 0
-23 -21 0
-24 -21 0
-23 -22 0
-24 -22 0
-24 -23 0
-1 -5 0
-2 -6 0
-3 -7 0
-4 -8 0
-1 -9 0
-2 -10 0
-3 -11 0
-4 -12 0
-1 -13 0
-2 -14 0
-3 -15 0
-4 -16 0
-1 -17 0
-2 -18 0
-3 -19 0
-4 -20 0
-1 -21 0
-2 -22 0
-3 -23 0
-4 -24 0
-5 -9 0
-6 -10 0
-7 -11 0
-8 -12 0
-5 -13 0
-6 -14 0
-7 -15 0
-8 -16 0
-5 -17 0
-6 -18 0
-7 -19 0
-8 -20 0
-5 -21 0
-6 -22 0
-7 -23 0
-8 -24 0
-9 -13 0
-10 -14 0
-11 -15 0
-12 -16 0
-9 -17 0
-10 -18 0
-11 -19 0
-12 -20 0
-9 -21 0
-10 -22 0
-11 -23 0
-12 -24 0
-13 -17 0
-14 -18 0
-15 -19 0
-16 -20 0
-13 -21 0
-14 -22 0
-15 -23 0
-16 -24 0
-17 -21 0
-18 -22 0
-19 -23 0
-20 -24 0
